data/solutions/recovery/wellformed/moderate/flexible/wellformed_moderate_instance53/23.sol
Elapsed time: 0.03
Upper bound: 4257.0
Planning weighted value: 132912.0
C[0]=4257.0
C[1]=4230.0
C[2]=4229.0
C[3]=3912.0
C[4]=3711.0
y[0]=3
y[1]=4
y[2]=4
y[3]=0
y[4]=2
y[5]=1
y[6]=3
y[7]=4
y[8]=3
y[9]=4
y[10]=1
y[11]=0
y[12]=1
y[13]=2
y[14]=4
y[15]=4
y[16]=0
y[17]=3
y[18]=2
y[19]=1
