data/solutions/recovery/wellformed/moderate/flexible/wellformed_moderate_instance53/23.log

Log started (V12.6.3.0) Fri Apr 20 20:56:36 2018

New value for default parallel thread count: 1

Problem '/tmp/tmpfoUUQD.pyomo.lp' read.
Read time = 0.00 sec. (0.03 ticks)

Problem name         : /tmp/tmpfoUUQD.pyomo.lp
Objective sense      : Minimize
Variables            :     107  [Nneg: 1,  Binary: 100,  General Integer: 6]
Objective nonzeros   :       1
Linear constraints   :      51  [Less: 25,  Equal: 26]
  Nonzeros           :    1811
  RHS nonzeros       :      41

Variables            : Min LB: 0.000000         Max UB: 1.000000       
Objective nonzeros   : Min   : 1.000000         Max   : 1.000000       
Linear constraints   :
  Nonzeros           : Min   : 1.000000         Max   : 1636.000       
  RHS nonzeros       : Min   : 1.000000         Max   : 2.000000       
Tried aggregator 2 times.
MIP Presolve eliminated 20 rows and 5 columns.
Aggregator did 6 substitutions.
Reduced MIP has 25 rows, 96 columns, and 271 nonzeros.
Reduced MIP has 95 binaries, 1 generals, 0 SOSs, and 0 indicators.
Presolve time = 0.00 sec. (0.73 ticks)
Found incumbent of value 20339.000000 after 0.00 sec. (0.90 ticks)
Probing time = 0.00 sec. (0.08 ticks)
Cover probing fixed 0 vars, tightened 3 bounds.
Tried aggregator 1 time.
Reduced MIP has 25 rows, 96 columns, and 271 nonzeros.
Reduced MIP has 95 binaries, 1 generals, 0 SOSs, and 0 indicators.
Presolve time = 0.00 sec. (0.19 ticks)
Probing time = 0.00 sec. (0.06 ticks)
Clique table members: 19.
MIP emphasis: balance optimality and feasibility.
MIP search method: dynamic search.
Parallel mode: none, using 1 thread.
Root relaxation solution time = 0.00 sec. (0.08 ticks)

        Nodes                                         Cuts/
   Node  Left     Objective  IInf  Best Integer    Best Bound    ItCnt     Gap

*     0+    0                        20339.0000     1636.0000            91.96%
      0     0     4067.8000     9    20339.0000     4067.8000        6   80.00%
*     0+    0                         4267.0000     4067.8000             4.67%
      0     0     4128.2737    12     4267.0000       Cuts: 5       29    3.25%
      0     0     4181.3340    14     4267.0000       Cuts: 7       47    2.01%
      0     0     4204.9721    20     4267.0000       Cuts: 7       66    1.45%
      0     0     4212.9645    18     4267.0000    MIRcuts: 2       75    1.27%
*     0+    0                         4257.0000     4212.9645             1.03%

Repeating presolve.
Tried aggregator 2 times.
MIP Presolve eliminated 2 rows and 52 columns.
MIP Presolve added 2 rows and 2 columns.
Aggregator did 14 substitutions.
Reduced MIP has 11 rows, 32 columns, and 95 nonzeros.
Reduced MIP has 29 binaries, 3 generals, 0 SOSs, and 0 indicators.
Presolve time = 0.00 sec. (0.12 ticks)
Probing time = 0.00 sec. (0.01 ticks)
Tried aggregator 1 time.
MIP Presolve eliminated 2 rows and 2 columns.
MIP Presolve added 2 rows and 2 columns.
Reduced MIP has 11 rows, 32 columns, and 95 nonzeros.
Reduced MIP has 29 binaries, 3 generals, 0 SOSs, and 0 indicators.
Presolve time = 0.00 sec. (0.05 ticks)
Represolve time = 0.00 sec. (0.30 ticks)
Probing time = 0.00 sec. (0.01 ticks)
Clique table members: 3.
MIP emphasis: balance optimality and feasibility.
MIP search method: dynamic search.
Parallel mode: none, using 1 thread.
Root relaxation solution time = 0.00 sec. (0.11 ticks)

        Nodes                                         Cuts/
   Node  Left     Objective  IInf  Best Integer    Best Bound    ItCnt     Gap

*     0+    0                         4257.0000     4212.9645             1.03%
      0     0     4212.9645    15     4257.0000     4212.9645       97    1.03%
      0     0        cutoff           4257.0000                    119    0.00%
Elapsed time = 0.01 sec. (7.20 ticks, tree = 0.01 MB, solutions = 3)

Cover cuts applied:  4
Flow cuts applied:  1
Mixed integer rounding cuts applied:  2
Lift and project cuts applied:  1

Root node processing (before b&c):
  Real time             =    0.01 sec. (7.20 ticks)
Sequential b&c:
  Real time             =    0.00 sec. (0.00 ticks)
                          ------------
Total (root+branch&cut) =    0.01 sec. (7.20 ticks)

Solution pool: 3 solutions saved.

MIP - Integer optimal solution:  Objective =  4.2570000000e+03
Solution time =    0.01 sec.  Iterations = 119  Nodes = 0
Deterministic time = 7.21 ticks  (525.65 ticks/sec)


Incumbent solution written to file '/tmp/tmpANfbuK.cplex.sol'.
